WARNING: for repeatability, setting FPU to use double precision
============================[ Problem Statistics ]=============================
|                                                                             |
|  Number of variables:           100                                         |
|  Number of clauses:             449                                         |
|  Parse time:                   0.00 s                                       |
|  Eliminated clauses:           0.00 Mb                                      |
|  Simplification time:          0.00 s                                       |
|                                                                             |
============================[ Search Statistics ]==============================
| Conflicts |          ORIGINAL         |          LEARNT          | Progress |
|           |    Vars  Clauses Literals |    Limit  Clauses Lit/Cl |          |
===============================================================================
|       100 |      96      443     1357 |      162      100      7 |  0.010 % |
|       250 |      96      443     1357 |      178      166      7 |  0.010 % |
|       475 |      96      443     1357 |      196      112      6 |  0.020 % |
===============================================================================
restarts              : 6
conflicts             : 696            (250090 /sec)
decisions             : 845            (0.00 % random) (303629 /sec)
propagations          : 15927          (5722961 /sec)
conflict literals     : 4404           (24.47 % deleted)
Memory used           : 13.00 MB
CPU time              : 0.002783 s

SATISFIABLE
